(declare-fun symvar1241629902 () Int)
(declare-fun symvar2015995010 () Int)
(declare-fun symvar1163256001 () Int)
(assert ( and ( and ( and true ( > ( + symvar2015995010 symvar1241629902) 3)) ( not ( < ( + ( * symvar2015995010 symvar2015995010) ( * symvar1241629902 symvar1241629902)) 30))) ( not ( = 0 0))))
(check-sat)
(get-model)
(exit)
